# Script: tip4p_rgd_horn_2004_ar.lt

# Author: Aamir Alaud Din

# Date: March 20, 2017

tip4p {

	write("Data Atoms") {
		$atom:O  $mol:. @atom:O -1.04844 0.7569503273 0.0          0.0
		$atom:H1 $mol:. @atom:H  0.52422 0.0          0.5858822766 0.0
		$atom:H2 $mol:. @atom:H  0.52422 1.513900655  0.5858822766 0.0
	}
	
	write_once("Data Masses") {
		@atom:O 15.9994
		@atom:H 1.008
	}
	
	write("Data Bonds") {
		$bond:OH1 @bond:OH $atom:O $atom:H1
		$bond:OH2 @bond:OH $atom:O $atom:H2
	}
	
	write("Data Angles") {
		$angle:HOH @angle:HOH $atom:H1 $atom:O $atom:H2
	}
	
	write_once("In Init") {
		units        real
		atom_style   full
		bond_style   hybrid harmonic
		angle_style  hybrid harmonic
		pair_style   lj/cut/tip4p/long @atom:O @atom:H @bond:OH @angle:HOH 0.125 12.0 10.0
		kspace_style pppm/tip4p 0.0001
		pair_modify  mix arithmetic
	}
	
	write_once("In Settings") {
		bond_coeff  @bond:OH harmonic 1000.0 0.9572
		angle_coeff @angle:HOH harmonic 1000.0 104.52
		pair_coeff  @atom:O @atom:O 0.16275 3.16435
		pair_coeff  @atom:H @atom:H 0.0 0.0
		group water type @atom:O @atom:H
		fix fshake_water water shake 0.0001 10 0 b @bond:OH a @angle:HOH
	}

} # end of tip4p
